param n := 120;
param c := 10000
param : V : p w :=
   0	 480	 470
   1	 264	 254
   2	 286	 276
   3	 403	 393
   4	 281	 271
   5	 346	 336
   6	 364	 354
   7	 292	 282
   8	 374	 364
   9	 376	 366
  10	 272	 262
  11	 382	 372
  12	 428	 418
  13	 275	 265
  14	 327	 317
  15	 452	 442
  16	 267	 257
  17	 311	 301
  18	 473	 463
  19	 262	 252
  20	 295	 285
  21	 457	 447
  22	 264	 254
  23	 309	 299
  24	 483	 473
  25	 260	 250
  26	 287	 277
  27	 422	 412
  28	 282	 272
  29	 326	 316
  30	 361	 351
  31	 263	 253
  32	 406	 396
  33	 425	 415
  34	 299	 289
  35	 306	 296
  36	 413	 403
  37	 278	 268
  38	 339	 329
  39	 391	 381
  40	 305	 295
  41	 334	 324
  42	 407	 397
  43	 309	 299
  44	 314	 304
  45	 509	 499
  46	 260	 250
  47	 261	 251
  48	 467	 457
  49	 265	 255
  50	 298	 288
  51	 447	 437
  52	 288	 278
  53	 295	 285
  54	 364	 354
  55	 308	 298
  56	 358	 348
  57	 422	 412
  58	 275	 265
  59	 333	 323
  60	 429	 419
  61	 287	 277
  62	 314	 304
  63	 481	 471
  64	 262	 252
  65	 287	 277
  66	 444	 434
  67	 289	 279
  68	 297	 287
  69	 364	 354
  70	 266	 256
  71	 400	 390
  72	 486	 476
  73	 265	 255
  74	 279	 269
  75	 490	 480
  76	 264	 254
  77	 276	 266
  78	 428	 418
  79	 264	 254
  80	 338	 328
  81	 379	 369
  82	 290	 280
  83	 361	 351
  84	 421	 411
  85	 275	 265
  86	 334	 324
  87	 442	 432
  88	 288	 278
  89	 300	 290
  90	 416	 406
  91	 283	 273
  92	 331	 321
  93	 449	 439
  94	 284	 274
  95	 297	 287
  96	 403	 393
  97	 271	 261
  98	 356	 346
  99	 454	 444
 100	 265	 255
 101	 311	 301
 102	 509	 499
 103	 260	 250
 104	 261	 251
 105	 449	 439
 106	 271	 261
 107	 310	 300
 108	 384	 374
 109	 316	 306
 110	 330	 320
 111	 477	 467
 112	 267	 257
 113	 286	 276
 114	 420	 410
 115	 284	 274
 116	 326	 316
 117	 415	 405
 118	 304	 294
 119	 311	 301
;

set E :=
   0	   5
   0	  30
   0	  36
   0	  54
   0	  59
   0	  64
   0	  65
   0	  72
   0	  93
   0	  97
   0	 117
   1	   3
   1	   4
   1	   6
   1	  11
   1	  12
   1	  14
   1	  30
   1	  67
   1	 103
   1	 112
   1	 118
   2	  13
   2	  20
   2	  24
   2	  25
   2	  28
   2	  32
   2	  37
   2	  44
   2	  50
   2	  52
   2	  66
   2	  74
   2	  76
   2	 112
   3	  12
   3	  30
   3	  37
   3	  43
   3	  48
   3	  59
   3	  84
   3	  86
   3	 106
   4	  19
   4	  30
   4	  39
   4	  41
   4	  61
   4	  64
   4	  65
   4	  72
   4	  75
   4	  78
   4	  98
   4	 100
   4	 107
   4	 117
   4	 118
   5	  11
   5	  12
   5	  13
   5	  17
   5	  24
   5	  33
   5	  66
   5	  69
   5	  98
   5	 106
   6	  14
   6	  15
   6	  16
   6	  24
   6	  27
   6	  41
   6	  42
   6	  61
   6	  62
   6	  63
   6	  82
   6	 100
   6	 112
   6	 119
   7	  17
   7	  26
   7	  35
   7	  56
   7	  59
   7	  71
   7	  74
   7	  81
   7	  91
   7	  94
   7	 106
   7	 113
   8	  31
   8	  32
   8	  46
   8	  49
   8	  57
   8	  58
   8	  71
   8	  93
   8	  95
   8	 106
   8	 107
   9	  41
   9	  70
   9	  76
  10	  18
  10	  39
  10	  43
  10	  57
  10	  86
  10	  88
  10	  93
  10	  99
  10	 115
  11	  18
  11	  20
  11	  32
  11	  35
  11	  42
  11	  46
  11	  48
  11	  56
  11	  61
  11	  89
  11	 113
  11	 115
  12	  18
  12	  24
  12	  27
  12	  37
  12	  49
  12	  50
  12	  68
  12	  75
  12	  80
  12	  83
  12	 102
  12	 103
  12	 117
  12	 118
  13	  21
  13	  25
  13	  37
  13	  38
  13	  48
  13	  61
  13	  70
  13	  71
  13	  96
  13	 106
  14	  15
  14	  22
  14	  33
  14	  42
  14	  58
  14	  59
  14	  61
  14	  89
  14	  96
  14	 108
  15	  22
  15	  37
  15	  42
  15	  78
  15	  80
  15	  84
  15	 101
  16	  25
  16	  26
  16	  33
  16	  68
  16	  70
  16	  75
  16	  76
  16	  77
  16	  91
  16	 108
  17	  26
  17	  28
  17	  42
  17	  47
  17	  59
  17	  67
  17	  70
  17	  73
  17	  80
  17	  89
  17	  91
  17	 112
  18	  24
  18	  36
  18	  49
  18	  57
  18	  59
  18	  63
  18	  69
  18	  73
  18	 104
  19	  30
  19	  31
  19	  40
  19	  47
  19	  54
  19	  60
  19	  63
  19	  67
  19	  84
  19	  86
  19	  87
  19	  90
  19	  92
  19	  95
  19	 102
  19	 108
  19	 113
  19	 115
  19	 116
  19	 118
  20	  25
  20	  29
  20	  30
  20	  39
  20	  53
  20	  62
  20	  63
  20	  66
  20	  71
  20	  75
  20	  82
  20	  90
  20	 108
  20	 112
  21	  41
  21	  43
  21	  52
  21	  61
  21	  87
  21	 103
  21	 106
  21	 115
  22	  28
  22	  36
  22	  37
  22	  38
  22	  39
  22	  53
  22	  62
  22	  63
  22	  69
  22	  71
  22	  78
  22	  80
  22	  84
  22	  88
  22	  98
  22	 103
  22	 111
  22	 115
  23	  40
  23	  53
  23	  58
  23	  69
  23	  80
  23	  82
  23	 101
  23	 105
  24	  38
  24	  62
  24	  71
  24	 103
  24	 108
  24	 111
  24	 114
  25	  33
  25	  36
  25	  38
  25	  77
  25	  82
  25	 116
  26	  30
  26	  63
  26	  83
  26	 111
  26	 116
  27	  28
  27	  35
  27	  46
  27	  47
  27	  48
  27	  52
  27	  67
  27	  79
  27	  82
  27	  88
  27	  99
  27	 116
  27	 118
  28	  33
  28	  34
  28	  42
  28	  61
  28	  90
  28	  91
  28	  98
  28	 103
  28	 115
  28	 116
  29	  36
  29	  53
  29	  66
  29	  71
  29	  79
  29	  80
  30	  37
  30	  52
  30	  75
  30	  99
  31	  32
  31	  38
  31	  39
  31	  41
  31	  49
  31	  52
  31	  65
  31	  67
  31	  69
  31	  84
  31	  91
  31	  94
  31	 107
  32	  40
  32	  44
  32	  61
  32	  72
  32	  76
  32	  85
  32	 110
  33	  48
  33	  81
  33	  89
  33	  93
  33	  94
  33	 107
  34	  39
  34	  43
  34	  51
  34	  72
  34	  80
  34	  85
  34	  90
  34	 107
  34	 115
  34	 119
  35	  54
  35	  66
  35	  78
  35	  82
  35	  85
  35	  91
  35	 100
  35	 103
  35	 105
  35	 109
  35	 110
  35	 112
  36	  41
  36	  65
  36	  66
  36	  69
  36	  87
  36	  88
  36	  90
  36	 102
  36	 110
  36	 112
  36	 116
  37	  38
  37	  39
  37	  70
  37	  79
  37	  88
  37	 106
  38	  50
  38	  53
  38	  63
  38	  69
  38	  72
  38	  87
  38	  91
  38	 105
  39	  46
  39	  66
  39	 100
  40	  45
  40	  60
  40	  63
  40	  65
  40	  74
  40	  75
  41	  44
  41	  74
  41	  76
  41	  78
  41	  80
  41	 108
  41	 116
  42	  48
  42	  62
  42	  65
  42	  66
  42	  69
  42	  73
  42	  75
  42	  77
  42	  95
  43	  55
  43	  74
  43	  79
  43	  93
  43	  97
  43	 104
  43	 114
  44	  45
  44	  56
  44	  61
  44	  85
  44	  94
  44	 102
  44	 104
  44	 105
  44	 106
  44	 114
  45	  46
  45	  49
  45	  52
  45	  57
  45	  60
  45	  91
  45	  98
  46	  47
  46	  59
  46	  81
  46	  85
  46	  86
  47	  51
  47	  54
  47	  71
  47	  72
  47	  86
  47	  87
  47	 112
  48	  53
  48	  60
  48	 103
  48	 107
  48	 108
  48	 113
  49	  53
  49	  54
  49	  61
  49	  65
  49	  69
  49	  75
  49	  77
  49	  84
  49	  95
  49	  96
  49	 101
  50	  51
  50	  56
  50	  74
  50	  77
  50	  86
  50	  90
  51	  56
  51	  60
  51	  71
  51	  79
  51	  83
  51	 112
  51	 113
  52	  59
  52	  60
  52	  64
  52	 102
  52	 105
  52	 118
  53	  56
  53	  65
  53	  75
  53	  91
  53	 103
  53	 107
  54	  58
  54	  62
  54	  64
  54	  67
  54	  83
  54	  90
  54	  92
  54	  94
  54	 101
  55	  57
  55	  58
  55	  63
  55	  65
  55	  78
  55	  81
  55	  83
  55	  92
  55	 101
  56	  68
  56	  75
  56	  79
  56	  90
  56	  98
  57	  60
  57	  75
  57	  78
  57	  88
  57	  97
  57	 101
  57	 105
  57	 110
  57	 113
  57	 114
  57	 116
  58	  68
  58	  71
  58	  72
  58	  79
  58	  80
  58	  90
  58	 116
  58	 118
  59	  65
  59	  66
  59	  69
  59	  73
  59	  86
  59	  88
  59	  96
  59	 102
  60	  63
  60	  74
  60	  89
  60	  94
  60	 100
  60	 109
  60	 117
  61	  74
  61	  97
  61	 109
  62	  67
  62	  78
  62	 111
  63	  64
  63	  76
  63	  77
  63	  78
  63	  96
  63	 105
  63	 112
  64	  75
  64	  82
  64	 109
  64	 119
  65	  67
  65	  71
  65	  74
  65	  78
  65	 102
  65	 106
  65	 114
  66	 106
  67	  75
  67	  78
  67	 107
  68	  85
  68	  91
  68	  98
  68	 101
  68	 102
  69	  85
  69	  97
  69	 112
  69	 116
  69	 119
  70	  76
  70	  79
  70	  96
  70	 101
  70	 106
  71	  73
  71	  75
  71	  89
  71	 106
  72	  74
  72	  78
  72	  84
  72	  94
  73	  74
  73	  83
  73	  92
  73	  98
  73	 100
  73	 105
  74	  77
  74	 109
  74	 116
  75	  79
  75	 107
  75	 115
  76	  80
  76	  91
  76	  92
  77	  82
  77	  89
  77	 108
  77	 112
  78	  97
  78	 107
  78	 109
  78	 111
  79	  90
  79	  94
  79	  98
  79	 101
  79	 108
  79	 115
  80	  91
  80	  93
  80	 116
  80	 119
  81	  84
  81	  90
  81	 104
  82	 113
  83	  90
  83	  93
  83	  94
  83	 105
  83	 106
  83	 109
  83	 113
  83	 114
  84	  94
  84	  96
  84	  97
  84	 112
  85	  92
  85	 104
  85	 106
  85	 107
  85	 119
  86	  89
  86	 103
  86	 110
  87	  99
  87	 115
  87	 118
  88	  90
  88	  95
  88	 107
  88	 113
  89	 100
  89	 102
  89	 103
  89	 104
  89	 115
  90	 111
  91	  96
  91	  97
  91	 119
  92	  98
  92	  99
  92	 102
  92	 108
  92	 113
  92	 115
  93	  95
  93	 107
  93	 115
  94	 114
  95	 104
  97	 101
  97	 111
  97	 117
  98	 118
  99	 100
  99	 112
 100	 113
 101	 105
 101	 114
 101	 119
 102	 103
 102	 114
 103	 105
 103	 113
 104	 110
 104	 114
 105	 107
 105	 119
 106	 107
 106	 109
 108	 109
 108	 113
 108	 117
 110	 119
 111	 116
 111	 118
 113	 116
 113	 117
 113	 119
 115	 119
;
